# 52376
param n := 30;
param s := 1;
set E :=  (0,9) (0,26) (1,5) (1,18) (1,26) (2,17) (3,6) (4,6) (4,15) (4,16) (4,21) (5,10) (5,11) (5,16) (6,23) (6,25) (6,26) (7,8) (7,26) (9,12) (9,21) (9,24) (11,22) (11,28) (12,20) (12,27) (13,24) (14,19) (15,20) (16,24) (17,18) (17,29) (18,24) (19,25) (19,27);
